
******************************************************************************
This program contains Ipopt, a library for large-scale nonlinear optimization.
 Ipopt is released as open source code under the Eclipse Public License (EPL).
         For more information visit http://projects.coin-or.org/Ipopt
******************************************************************************

This is Ipopt version 3.12.6, running with linear solver ma57.

Number of nonzeros in equality constraint Jacobian...:       48
Number of nonzeros in inequality constraint Jacobian.:      130
Number of nonzeros in Lagrangian Hessian.............:       33

Total number of variables............................:       48
                     variables with only lower bounds:        2
                variables with lower and upper bounds:       46
                     variables with only upper bounds:        0
Total number of equality constraints.................:       12
Total number of inequality constraints...............:       61
        inequality constraints with only lower bounds:       60
   inequality constraints with lower and upper bounds:        0
        inequality constraints with only upper bounds:        1

iter    objective    inf_pr   inf_du lg(mu)  ||d||  lg(rg) alpha_du alpha_pr  ls
   0  4.7065962e+04 2.40e+04 8.98e+02  -1.0 0.00e+00    -  0.00e+00 0.00e+00   0
   1  4.6977017e+04 2.39e+04 8.93e+02  -1.0 4.62e+00    -  9.31e-03 2.14e-03f  1
   2  4.6818085e+04 2.38e+04 8.84e+02  -1.0 4.00e+00    -  9.52e-03 4.30e-03f  1
   3  4.6776401e+04 2.38e+04 8.76e+02  -1.0 3.90e+00    -  6.72e-03 2.49e-03f  1
   4  4.6768200e+04 2.37e+04 8.70e+02  -1.0 4.00e+00    -  5.53e-03 3.63e-03f  1
   5  4.6777124e+04 2.35e+04 8.57e+02  -1.0 4.04e+00    -  1.18e-02 8.54e-03h  1
   6  4.6818264e+04 2.34e+04 8.10e+02  -1.0 4.04e+00    -  2.95e-02 4.94e-03h  1
   7  4.7025579e+04 2.30e+04 8.14e+02  -1.0 3.44e+00    -  6.71e-03 1.69e-02h  1
   8  4.7777216e+04 2.19e+04 7.96e+02  -1.0 3.29e+00    -  3.88e-02 5.39e-02h  1
   9  4.9827598e+04 1.97e+04 7.05e+02  -1.0 3.26e+00    -  1.19e-01 1.22e-01h  1
iter    objective    inf_pr   inf_du lg(mu)  ||d||  lg(rg) alpha_du alpha_pr  ls
  10  5.1114610e+04 1.86e+04 4.90e+02  -1.0 3.16e+00    -  1.48e-01 5.85e-02h  1
  11  5.1220821e+04 1.86e+04 8.48e+02  -1.0 3.21e+00    -  1.46e-01 3.55e-03h  1
  12  5.1291668e+04 1.85e+04 1.19e+03  -1.0 3.30e+00    -  8.40e-02 2.12e-03h  1
  13  5.1603215e+04 1.83e+04 1.25e+03  -1.0 3.39e+00    -  2.82e-02 9.77e-03h  1
  14  5.2481458e+04 1.78e+04 1.10e+03  -1.0 3.58e+00    -  2.59e-04 2.79e-02h  1
  15  5.2601863e+04 1.77e+04 1.25e+03  -1.0 4.86e+00    -  2.74e-02 6.02e-03h  1
  16  5.3876345e+04 1.70e+04 1.06e+03  -1.0 4.53e+00    -  3.94e-04 5.02e-02h  1
  17  5.3965781e+04 1.69e+04 1.04e+03  -1.0 3.85e+00    -  3.98e-03 1.98e-03h  1
  18  5.4562537e+04 1.67e+04 1.04e+03  -1.0 3.20e+00    -  6.64e-04 1.16e-02h  1
  19  5.5613977e+04 1.64e+04 1.02e+03  -1.0 3.06e+00    -  1.56e-02 2.01e-02h  1
iter    objective    inf_pr   inf_du lg(mu)  ||d||  lg(rg) alpha_du alpha_pr  ls
  20  5.6778416e+04 1.60e+04 1.06e+03  -1.0 2.70e+00    -  7.97e-02 2.16e-02h  1
  21  5.9731939e+04 1.52e+04 9.20e+02  -1.0 2.04e+00    -  2.21e-02 5.07e-02h  1
  22  6.0409290e+04 1.51e+04 2.77e+03  -1.0 1.98e+00    -  4.20e-01 1.17e-02h  1
  23  8.2289013e+04 1.08e+04 1.43e+03  -1.0 1.79e+00    -  1.82e-01 3.17e-01h  1
  24  9.5417280e+04 8.86e+03 4.01e+03  -1.0 1.37e+00    -  7.84e-01 1.93e-01h  1
  25  1.6310789e+05 3.22e+03 2.65e+03  -1.0 2.24e+00    -  8.54e-01 8.05e-01h  1
  26  1.6402657e+05 3.15e+03 8.35e+03  -1.0 1.53e+01    -  9.90e-01 2.08e-02h  1
  27  1.6405606e+05 3.15e+03 8.41e+03  -1.0 1.53e+03    -  2.92e-03 6.81e-04h  1
  28  1.6666126e+05 2.97e+03 6.54e+03  -1.0 1.54e+03    -  3.16e-03 5.77e-02h  1
  29  1.6708903e+05 2.95e+03 7.52e+03  -1.0 1.54e+03    -  4.21e-02 8.78e-03h  1
iter    objective    inf_pr   inf_du lg(mu)  ||d||  lg(rg) alpha_du alpha_pr  ls
  30  1.7607427e+05 2.51e+03 1.50e+04  -1.0 1.61e+03    -  9.72e-04 1.65e-01h  1
  31  1.7980632e+05 2.31e+03 1.54e+04  -1.0 1.60e+03    -  3.17e-02 8.13e-02h  1
  32  1.7984085e+05 2.31e+03 1.31e+04  -1.0 1.65e+03    -  1.05e-01 8.04e-04h  1
  33  1.8003420e+05 2.30e+03 7.76e+03  -1.0 1.84e+03    -  3.25e-02 3.10e-03h  1
  34  1.8772726e+05 2.05e+03 2.39e+04  -1.0 1.90e+03    -  4.48e-04 1.21e-01h  1
  35  1.9355447e+05 1.82e+03 2.40e+04  -1.0 1.90e+03    -  6.20e-02 1.18e-01h  1
  36  1.9362065e+05 1.81e+03 2.25e+04  -1.0 2.02e+03    -  2.52e-02 1.32e-03h  1
  37  1.9378362e+05 1.81e+03 2.26e+04  -1.0 2.07e+03    -  2.88e-04 3.14e-03h  1
  38  1.9817458e+05 1.63e+03 2.02e+04  -1.0 2.07e+03    -  1.11e-01 1.00e-01h  1
  39  2.0468957e+05 1.39e+03 1.84e+04  -1.0 2.32e+03    -  2.98e-03 1.50e-01h  1
iter    objective    inf_pr   inf_du lg(mu)  ||d||  lg(rg) alpha_du alpha_pr  ls
  40  2.1023148e+05 1.21e+03 1.55e+04  -1.0 2.32e+03    -  1.84e-01 1.36e-01h  1
  41  2.1031087e+05 1.21e+03 1.49e+04  -1.0 2.82e+03    -  6.33e-02 2.10e-03h  1
  42  2.3353735e+05 5.70e+02 1.07e+04  -1.0 3.00e+03    -  2.06e-03 5.67e-01h  1
  43  2.3432435e+05 5.51e+02 7.79e+03  -1.0 2.95e+03    -  3.07e-01 3.39e-02h  1
  44  2.5603647e+05 8.18e+01 9.23e+03  -1.0 4.20e+03    -  6.95e-02 9.01e-01h  1
  45  2.5788388e+05 3.90e+01 9.31e+03  -1.0 4.32e+03    -  6.70e-02 5.27e-01h  1
  46  2.5890180e+05 6.60e+00 7.09e+03  -1.0 4.50e+03    -  1.49e-01 1.00e+00h  1
  47  2.5914667e+05 8.96e-01 2.29e+03  -1.0 4.98e+03    -  6.79e-01 8.65e-01h  1
  48  2.5918566e+05 1.11e-16 8.46e+02  -1.0 1.31e+04    -  6.31e-01 1.00e+00h  1
  49  2.5918482e+05 5.55e-17 5.13e+02  -1.0 2.34e+04    -  3.70e-01 1.00e+00f  1
iter    objective    inf_pr   inf_du lg(mu)  ||d||  lg(rg) alpha_du alpha_pr  ls
  50  2.5918472e+05 1.11e-16 9.06e+00  -1.0 2.03e+04    -  9.81e-01 1.00e+00f  1
  51  2.5918124e+05 1.11e-16 5.49e-03  -1.7 4.81e+03    -  1.00e+00 1.00e+00f  1
  52  2.5918034e+05 1.32e-04 3.24e-03  -3.8 1.49e+02    -  1.00e+00 1.00e+00f  1
  53  2.5918034e+05 1.39e-06 3.43e-05  -5.7 2.41e+02    -  1.00e+00 1.00e+00h  1
  54  2.5918034e+05 3.57e-11 4.20e-09  -8.6 2.63e+01    -  1.00e+00 1.00e+00h  1

Number of Iterations....: 54

                                   (scaled)                 (unscaled)
Objective...............:   1.0367213481193426e+05    2.5918033702983565e+05
Dual infeasibility......:   4.1955288020889308e-09    1.0488822005222327e-08
Constraint violation....:   1.4282239950261541e-14    3.5705599875653853e-11
Complementarity.........:   6.0426629665605992e-09    1.5106657416401497e-08
Overall NLP error.......:   3.2074697871313852e-10    1.5106657416401497e-08


Number of objective function evaluations             = 55
Number of objective gradient evaluations             = 55
Number of equality constraint evaluations            = 55
Number of inequality constraint evaluations          = 55
Number of equality constraint Jacobian evaluations   = 55
Number of inequality constraint Jacobian evaluations = 55
Number of Lagrangian Hessian evaluations             = 54
Total CPU secs in IPOPT (w/o function evaluations)   =      0.027
Total CPU secs in NLP function evaluations           =      0.003

EXIT: Optimal Solution Found.

************************ CUTEst statistics ************************


 Package used            :  IPOPT
 Problem                 :  BATCH     
 # variables             =              48
 # constraints           =              73
 # objective functions   =        0.1110000E+03
 # objective gradients   =        0.5600000E+02
 # objective Hessians    =        0.5500000E+02
 # Hessian-vector prdct  =        0.0000000E+00
 # constraints functions =        0.1120000E+03
 # constraints gradients =        0.5700000E+02
 # constraints Hessians  =        0.5500000E+02
 Exit code               =               0
 Final f                 =   0.2591803E+06
 Set up time             =            0.00 seconds
 Solve time              =            0.09 seconds


******************************************************************

System Time =       0.0219999999 s.
